10 6 15 4 18 14 11 7 8 17 1 0 12 9 19 5 2 13 16 3  
10 6 15 4 18 14 11 7 8 17 12 9 19 5 2 13 16 0 1 3  
10 6 15 4 18 14 11 7 8 17 12 9 19 5 2 3 1 0 13 16  
4 10 6 18 15 14 7 11 8 17 12 5 9 19 2 3 1 0 13 16  
10 6 15 4 18 14 11 17 8 12 0 16 9 19 5 7 3 13 2 1  
10 6 15 4 18 14 11 7 8 17 1 0 12 5 9 19 2 13 16 3  
10 6 15 4 18 14 11 7 8 0 1 17 12 9 19 5 2 13 16 3  
10 6 15 4 18 14 11 7 8 17 12 9 13 16 0 1 5 2 3 19  
10 6 15 4 18 14 11 7 8 0 12 9 19 5 17 1 2 13 16 3  
4 10 6 18 15 14 7 11 8 0 12 9 19 5 2 17 1 13 16 3  
10 6 15 4 18 14 11 7 8 0 12 9 19 5 2 17 1 13 16 3  
10 6 15 4 18 14 11 17 8 12 0 16 9 19 5 2 13 7 3 1  
10 6 15 4 18 14 11 7 8 17 12 9 19 16 5 0 1 13 2 3  
10 6 15 4 18 14 11 7 8 0 1 17 12 9 19 5 2 13 16 3  
10 6 15 4 18 14 11 7 8 17 12 5 9 19 2 1 0 13 16 3  
10 6 15 4 18 14 11 7 8 17 12 9 19 1 0 13 16 5 2 3  
10 6 15 4 18 14 11 7 8 17 12 5 9 19 2 1 0 13 16 3  
6 10 4 15 18 14 7 8 11 17 12 5 9 19 2 1 0 13 16 3  
10 6 15 4 18 14 11 7 8 0 1 17 12 9 19 5 2 13 16 3  
10 6 15 4 18 14 11 17 8 12 0 16 9 19 5 7 3 1 2 13  
4 10 6 18 15 14 7 11 8 0 12 9 19 5 2 17 1 13 16 3  
10 6 15 4 18 14 11 7 8 17 12 9 13 16 0 1 5 2 3 19  
10 6 15 4 18 14 11 7 8 17 12 9 19 16 0 1 5 13 2 3  
10 6 15 4 18 14 11 17 8 12 0 16 9 19 5 7 3 13 2 1  
10 6 15 4 18 14 11 17 8 12 0 16 9 19 5 7 3 1 2 13  
10 6 15 4 11 18 14 7 8 17 12 9 19 5 0 1 13 2 16 3  
4 10 6 18 15 14 7 11 8 0 12 9 19 5 2 17 1 13 16 3  
10 6 15 4 18 14 11 17 8 12 0 16 9 19 5 7 3 13 2 1  
4 10 6 18 15 14 7 8 11 17 12 5 9 19 2 1 0 13 16 3  
10 6 15 4 18 11 14 17 8 12 5 9 19 2 7 0 1 13 16 3  
4 10 6 18 15 14 7 11 8 17 12 9 19 5 2 0 1 3 13 16  
10 6 15 4 18 14 11 7 8 17 12 9 19 5 2 13 16 0 1 3  
10 6 15 4 18 14 11 17 8 12 0 16 9 19 5 7 3 13 2 1  
10 6 15 4 18 14 11 7 8 17 12 9 19 5 0 1 13 2 16 3  
10 6 15 4 18 14 11 17 8 12 0 16 9 19 5 3 13 2 1 7  
10 6 15 4 18 14 11 7 8 17 12 9 19 5 2 13 16 0 1 3  
10 6 15 4 18 14 11 7 8 17 12 9 19 5 2 13 16 0 1 3  
